(set-logic HORN)

; (binary search) tree
(declare-datatypes () ((Tree (node (data Int) (left Tree) (right Tree)) (leaf))))

(declare-fun tcontains (Tree Int Bool) Bool)
(assert (forall ((i Int)) (tcontains leaf i false)))
(assert (forall ((d Int) (l Tree) (r Tree) (i Int))
	(=> (= d i) (tcontains (node d l r) i true))))
(assert (forall ((d Int) (l Tree) (r Tree) (i Int))
	(=> (tcontains l i true) (tcontains (node d l r) i true))))
(assert (forall ((d Int) (l Tree) (r Tree) (i Int))
	(=> (tcontains r i true) (tcontains (node d l r) i true))))

(declare-fun tmember (Tree Int Bool) Bool)
(assert (forall ((x Int)) (tmember leaf x false)))
(assert (forall ((d Int) (l Tree) (r Tree) (i Int)) 
	(=> (= i d) (tmember (node d l r) i true))))
(assert (forall ((d Int) (l Tree) (r Tree) (i Int)) 
	(=> (and (< d i) (tmember r i true)) (tmember (node d l r) i true))))
(assert (forall ((d Int) (l Tree) (r Tree) (i Int)) 
	(=> (and (< i d) (tmember l i true)) (tmember (node d l r) i true))))
                              
; conjecture
(assert (forall ((i Int) (x Tree) (r Bool))
	(=> (and (tmember x i true) (tcontains x i r) (not (= r true))) false))); G-bsearch-tree-12 

(check-sat)
